Maximize

y_0 + y_1 + y_2


Subject To

a0: x_0_0 + x_0_1 + x_0_2 <= 1
a1: x_1_0 + x_1_1 + x_1_2 <= 1
a2: x_2_0 + x_2_1 + x_2_2 <= 1
a3: x_3_0 + x_3_1 + x_3_2 <= 1
a4: x_4_0 + x_4_1 + x_4_2 <= 1
a5: x_5_0 + x_5_1 + x_5_2 <= 1
a6: x_6_0 + x_6_1 + x_6_2 <= 1
a7: x_7_0 + x_7_1 + x_7_2 <= 1
a8: x_8_0 + x_8_1 + x_8_2 <= 1
a9: x_9_0 + x_9_1 + x_9_2 <= 1
b0: x_0_0 <= 1
b1: x_0_1 <= 1
b2: x_0_2 <= 0
b3: x_1_0 <= 0
b4: x_1_1 <= 1
b5: x_1_2 <= 1
b6: x_2_0 <= 1
b7: x_2_1 <= 0
b8: x_2_2 <= 1
b9: x_3_0 <= 1
b10: x_3_1 <= 1
b11: x_3_2 <= 0
b12: x_4_0 <= 1
b13: x_4_1 <= 0
b14: x_4_2 <= 1
b15: x_5_0 <= 0
b16: x_5_1 <= 1
b17: x_5_2 <= 1
b18: x_6_0 <= 1
b19: x_6_1 <= 1
b20: x_6_2 <= 0
b21: x_7_0 <= 1
b22: x_7_1 <= 0
b23: x_7_2 <= 1
b24: x_8_0 <= 0
b25: x_8_1 <= 1
b26: x_8_2 <= 1
b27: x_9_0 <= 0
b28: x_9_1 <= 1
b29: x_9_2 <= 0
c0: 16 x_0_0 + 14 x_1_0 + 8 x_2_0 + 7 x_3_0 + 8 x_4_0 + 15 x_5_0 + 9 x_6_0 + 6 x_7_0 + 40 x_8_0 + 12 x_9_0 <= 45
c1: 16 x_0_1 + 14 x_1_1 + 8 x_2_1 + 7 x_3_1 + 8 x_4_1 + 15 x_5_1 + 9 x_6_1 + 6 x_7_1 + 40 x_8_1 + 12 x_9_1 <= 50
c2: 16 x_0_2 + 14 x_1_2 + 8 x_2_2 + 7 x_3_2 + 8 x_4_2 + 15 x_5_2 + 9 x_6_2 + 6 x_7_2 + 40 x_8_2 + 12 x_9_2 <= 55
d0: 16 x_0_0 + 14 x_1_0 + 8 x_2_0 + 7 x_3_0 + 8 x_4_0 + 15 x_5_0 + 9 x_6_0 + 6 x_7_0 + 40 x_8_0 + 12 x_9_0 - 45 y_0 >= 0
d1: 16 x_0_1 + 14 x_1_1 + 8 x_2_1 + 7 x_3_1 + 8 x_4_1 + 15 x_5_1 + 9 x_6_1 + 6 x_7_1 + 40 x_8_1 + 12 x_9_1 - 50 y_1 >= 0
d2: 16 x_0_2 + 14 x_1_2 + 8 x_2_2 + 7 x_3_2 + 8 x_4_2 + 15 x_5_2 + 9 x_6_2 + 6 x_7_2 + 40 x_8_2 + 12 x_9_2 - 55 y_2 >= 0




Binary

x_0_0 x_0_1 x_0_2 x_1_0 x_1_1 x_1_2 x_2_0 x_2_1 x_2_2 x_3_0 x_3_1 x_3_2 x_4_0 x_4_1 x_4_2 x_5_0 x_5_1 x_5_2 x_6_0 x_6_1 x_6_2 x_7_0 x_7_1 x_7_2 x_8_0 x_8_1 x_8_2 x_9_0 x_9_1 x_9_2 y_0 y_1 y_2

 


End
